
Log started (V20.1.0.0) Sun May  1 04:37:03 2022


Problem 'file.lp' read.
Read time = 0.00 sec. (0.00 ticks)
Version identifier: 20.1.0.0 | 2020-11-10 | 9bedb6d68
Dual infeasible due to empty column 'Y#1'.
Presolve time = 0.00 sec. (0.00 ticks)
Presolve - Unbounded or infeasible.
Solution time =    0.00 sec.
Deterministic time = 0.00 ticks  (0.42 ticks/sec)
No solution exists.

Log started (V20.1.0.0) Sun May  1 04:41:27 2022


Problem 'file.lp' read.
Read time = 0.00 sec. (0.00 ticks)
Version identifier: 20.1.0.0 | 2020-11-10 | 9bedb6d68
Tried aggregator 1 time.
LP Presolve eliminated 4 rows and 9 columns.
All rows and columns eliminated.
Presolve time = 0.00 sec. (0.00 ticks)

Dual simplex - Optimal:  Objective =  3.5000000000e+05
Solution time =    0.00 sec.  Iterations = 0 (0)
Deterministic time = 0.00 ticks  (4.38 ticks/sec)


Variable Name           Solution Value
Y#2                      100000.000000
All other variables matching '*' are 0.

Log started (V20.1.0.0) Sun May  1 04:48:13 2022


Problem 'file.lp' read.
Read time = 0.00 sec. (0.00 ticks)
Version identifier: 20.1.0.0 | 2020-11-10 | 9bedb6d68
Tried aggregator 1 time.
LP Presolve eliminated 15 rows and 3 columns.
Reduced LP has 1 rows, 6 columns, and 6 nonzeros.
Presolve time = 0.00 sec. (0.01 ticks)

Iteration log . . .
Iteration:     1   Dual objective     =        305000.000000

Dual simplex - Optimal:  Objective =  3.0500000000e+05
Solution time =    0.00 sec.  Iterations = 1 (0)
Deterministic time = 0.01 ticks  (12.31 ticks/sec)


Variable Name           Solution Value
Y#1                        5000.000000
Y#2                       20000.000000
Y#3                       20000.000000
Y#4                       25000.000000
Y#5                       10000.000000
Y#6                       20000.000000
All other variables matching '*' are 0.

Log started (V20.1.0.0) Sun May  1 15:15:33 2022


Problem 'file.lp' read.
Read time = 0.00 sec. (0.00 ticks)
Version identifier: 20.1.0.0 | 2020-11-10 | 9bedb6d68
Tried aggregator 1 time.
LP Presolve eliminated 16 rows and 3 columns.
Reduced LP has 1 rows, 6 columns, and 6 nonzeros.
Presolve time = 0.00 sec. (0.01 ticks)

Iteration log . . .
Iteration:     1   Dual objective     =        280000.000000

Dual simplex - Optimal:  Objective =  2.8000000000e+05
Solution time =    0.00 sec.  Iterations = 1 (0)
Deterministic time = 0.01 ticks  (12.75 ticks/sec)


Variable Name           Solution Value
X#2                       10000.000000
Y#1                        5000.000000
Y#2                       20000.000000
Y#3                       20000.000000
Y#4                       25000.000000
Y#5                       10000.000000
Y#6                       20000.000000
All other variables matching '*' are 0.

Log started (V20.1.0.0) Sun May  1 15:28:40 2022


Problem 'file.lp' read.
Read time = 0.00 sec. (0.00 ticks)
Version identifier: 20.1.0.0 | 2020-11-10 | 9bedb6d68
Tried aggregator 1 time.
LP Presolve eliminated 16 rows and 3 columns.
Reduced LP has 1 rows, 6 columns, and 6 nonzeros.
Presolve time = 0.00 sec. (0.01 ticks)

Iteration log . . .
Iteration:     1   Dual objective     =        280000.000000

Dual simplex - Optimal:  Objective =  2.8000000000e+05
Solution time =    0.00 sec.  Iterations = 1 (0)
Deterministic time = 0.01 ticks  (12.77 ticks/sec)


Variable Name           Solution Value
Xc#2                      10000.000000
Xp#1                       5000.000000
Xp#2                      20000.000000
Xp#3                      20000.000000
Xp#4                      25000.000000
Xp#5                      10000.000000
Xp#6                      20000.000000
All other variables matching '*' are 0.

Log started (V20.1.0.0) Sun May  1 15:39:58 2022


Problem 'file.lp' read.
Read time = 0.00 sec. (0.00 ticks)
Version identifier: 20.1.0.0 | 2020-11-10 | 9bedb6d68
Tried aggregator 1 time.
LP Presolve eliminated 16 rows and 3 columns.
Reduced LP has 1 rows, 6 columns, and 6 nonzeros.
Presolve time = 0.00 sec. (0.01 ticks)

Iteration log . . .
Iteration:     1   Dual objective     =        280000.000000

Dual simplex - Optimal:  Objective =  2.8000000000e+05
Solution time =    0.00 sec.  Iterations = 1 (0)
Deterministic time = 0.01 ticks  (12.77 ticks/sec)


Variable Name           Solution Value
Xc#2                      10000.000000
Xp#1                       5000.000000
Xp#2                      20000.000000
Xp#3                      20000.000000
Xp#4                      25000.000000
Xp#5                      10000.000000
Xp#6                      20000.000000
All other variables matching '*' are 0.
